c ren 1 -> 1
c ren 2 -> 2
c ren 3 -> 3
c ren 4 -> 4
c ren 5 -> 5
c ren 6 -> 6
c ren 7 -> 7
c ren 8 -> 8
c ren 9 -> 9
c ren 10 -> 10
c ren 11 -> 11
c ren 12 -> 12
c ren 13 -> 13
c ren 14 -> 14
c ren 15 -> 15
c ren 16 -> 16
c ren 17 -> 17
c ren 18 -> 18
c ren 19 -> 19
c ren 20 -> 20
c ren 21 -> 21
c ren 22 -> 22
c ren 23 -> 23
c ren 24 -> 24
c ren 25 -> 25
c ren 26 -> 26
c ren 27 -> 27
c ren 28 -> 28
c ren 29 -> 29
c ren 30 -> 30
c ren 31 -> 31
c ren 32 -> 32
c ren 33 -> 33
c ren 34 -> 34
c ren 35 -> 35
c ren 36 -> 36
c ren 37 -> 37
c ren 38 -> 38
c ren 39 -> 39
c ren 40 -> 40
c ren 41 -> 41
c ren 42 -> 42
c ren 43 -> 43
c ren 44 -> 44
c ren 45 -> 45
c ren 46 -> 46
c ren 47 -> 47
c ren 48 -> 48
c ren 49 -> 49
c ren 50 -> 50
c ren 51 -> 51
c ren 52 -> 52
c ren 53 -> 53
c ren 54 -> 54
c ren 55 -> 55
c ren 56 -> 56
c ren 57 -> 57
c ren 58 -> 58
c ren 59 -> 59
c ren 60 -> 60
c ren 61 -> 61
c ren 62 -> 62
c ren 63 -> 63
c ren 64 -> 64
c ren 65 -> 65
c ren 66 -> 66
c ren 67 -> 67
c ren 68 -> 68
c ren 69 -> 69
c ren 70 -> 70
c ren 71 -> 71
c ren 72 -> 72
c ren 73 -> 73
c ren 74 -> 74
c ren 75 -> 75
c ren 76 -> 76
c ren 77 -> 77
c ren 78 -> 78
c ren 79 -> 79
c ren 80 -> 80
c ren 81 -> 81
c ren 82 -> 82
c ren 83 -> 83
c ren 84 -> 84
c ren 85 -> 85
c ren 86 -> 86
c ren 87 -> 87
c ren 88 -> 88
c ren 89 -> 89
c ren 90 -> 90
c ren 91 -> 91
c ren 92 -> 92
c ren 93 -> 93
c ren 95 -> 94
c ren 98 -> 95
c ren 113 -> 96
c ren 116 -> 97
c ren 119 -> 98
c ren 121 -> 99
c ren 129 -> 100
c ren 136 -> 101
c ren 143 -> 102
c ren 150 -> 103
c ren 157 -> 104
c ren 164 -> 105
c ren 187 -> 106
c ren 197 -> 107
c ren 206 -> 108
c ren 215 -> 109
c ren 224 -> 110
c ren 233 -> 111
c ren 242 -> 112
c ren 251 -> 113
c ren 271 -> 114
c ren 282 -> 115
c ren 291 -> 116
c ren 299 -> 117
c ren 307 -> 118
c ren 315 -> 119
c ren 323 -> 120
c ren 331 -> 121
c ren 339 -> 122
c ren 350 -> 123
c ren 367 -> 124
c ren 378 -> 125
c ren 387 -> 126
c ren 396 -> 127
c ren 405 -> 128
c ren 414 -> 129
c ren 423 -> 130
c ren 432 -> 131
c ren 449 -> 132
c ren 460 -> 133
c ren 470 -> 134
c ren 478 -> 135
c ren 486 -> 136
c ren 494 -> 137
c ren 502 -> 138
c ren 510 -> 139
c ren 518 -> 140
c ren 541 -> 141
c ren 555 -> 142
c ren 556 -> 143
c ren 557 -> 144
c ren 558 -> 145
c ren 559 -> 146
c ren 560 -> 147
c ren 561 -> 148
c ren 562 -> 149
c ren 563 -> 150
c ren 564 -> 151
c ren 565 -> 152
c ren 566 -> 153
c ren 567 -> 154
c ren 568 -> 155
c ren 569 -> 156
c ren 570 -> 157
c ren 571 -> 158
c ren 572 -> 159
c ren 573 -> 160
c ren 574 -> 161
c ren 575 -> 162
c ren 576 -> 163
c ren 577 -> 164
c ren 578 -> 165
c ren 579 -> 166
c ren 580 -> 167
p cnf 167 592
a 1 2 3 4 5 6 7 8 9 10 11 12 13 14 15 16 17 18 19 20 21 22 23 24 25 26 27 28 29 30 31 32 33 34 35 36 37 38 39 40 41 42 43 44 45 46 47 48 49 50 51 52 53 54 55 56 57 58 59 60 61 62 63 0
d 64 37 0
d 65 38 0
d 66 39 0
d 67 40 0
d 68 41 0
d 69 42 0
d 70 43 0
d 71 44 0
d 72 45 0
d 73 37 38 39 40 41 42 43 44 45 46 47 48 49 50 51 52 53 54 0
d 74 37 38 39 40 41 42 43 44 45 46 47 48 49 50 51 52 53 54 0
d 75 37 38 39 40 41 42 43 44 45 46 47 48 49 50 51 52 53 54 55 0
d 76 37 38 39 40 41 42 43 44 45 46 47 48 49 50 51 52 53 54 0
d 77 37 38 39 40 41 42 43 44 45 46 47 48 49 50 51 52 53 54 56 0
d 78 37 38 39 40 41 42 43 44 45 46 47 48 49 50 51 52 53 54 0
d 79 37 38 39 40 41 42 43 44 45 46 47 48 49 50 51 52 53 54 57 0
d 80 37 38 39 40 41 42 43 44 45 46 47 48 49 50 51 52 53 54 0
d 81 37 38 39 40 41 42 43 44 45 46 47 48 49 50 51 52 53 54 58 0
d 82 37 38 39 40 41 42 43 44 45 46 47 48 49 50 51 52 53 54 0
d 83 37 38 39 40 41 42 43 44 45 46 47 48 49 50 51 52 53 54 59 0
d 84 37 38 39 40 41 42 43 44 45 46 47 48 49 50 51 52 53 54 0
d 85 37 38 39 40 41 42 43 44 45 46 47 48 49 50 51 52 53 54 60 0
d 86 37 38 39 40 41 42 43 44 45 46 47 48 49 50 51 52 53 54 0
d 87 37 38 39 40 41 42 43 44 45 46 47 48 49 50 51 52 53 54 61 0
d 88 37 38 39 40 41 42 43 44 45 46 47 48 49 50 51 52 53 54 0
d 89 37 38 39 40 41 42 43 44 45 46 47 48 49 50 51 52 53 54 0
d 90 37 38 39 40 41 42 43 44 45 46 47 48 49 50 51 52 53 54 62 0
d 91 37 38 39 40 41 42 43 44 45 46 47 48 49 50 51 52 53 54 55 56 57 58 59 60 61 62 63 0
d 92 37 38 39 40 41 42 43 44 45 46 47 48 49 50 51 52 53 54 55 56 57 58 59 60 61 62 63 0
d 93 37 38 39 40 41 42 43 44 45 46 47 48 49 50 51 52 53 54 55 56 57 58 59 60 61 62 63 0
e 94 95 96 97 98 99 100 101 102 103 104 105 106 107 108 109 110 111 112 113 114 115 116 117 118 119 120 121 122 123 124 125 126 127 128 129 130 131 132 133 134 135 136 137 138 139 140 141 142 143 144 145 146 147 148 149 150 151 152 153 154 155 156 157 158 159 160 161 162 163 164 165 166 167 0
-1 -94 0
2 -94 0
1 -2 94 0
-4 -95 0
6 -95 0
4 -6 95 0
-10 13 -99 -106 109 0
8 -10 -99 0
10 -12 18 -20 94 95 96 97 98 99 0
-14 17 -99 -106 110 0
12 -14 -99 0
10 -12 -16 -20 94 95 96 97 98 99 0
-18 21 -99 -106 111 0
16 -18 -99 0
10 -12 -16 22 94 95 96 97 98 99 0
-22 25 -99 -106 112 0
20 -22 -99 0
10 14 -16 -20 94 95 96 97 98 99 0
-24 -96 0
26 -96 0
24 -26 96 0
-28 -97 0
30 -97 0
28 -30 97 0
-32 -98 0
34 -98 0
32 -34 98 0
-94 -99 0
-95 -99 0
8 -10 11 102 0
12 -14 15 103 0
16 -18 19 104 0
20 -22 23 105 0
-96 -99 0
-97 -99 0
-98 -99 0
94 99 -107 0
-2 5 -99 -106 107 0
10 14 18 -20 94 95 96 97 98 99 0
5 -94 -106 107 0
-2 3 -99 100 0
10 14 18 22 94 95 96 97 98 99 0
10 14 -16 22 94 95 96 97 98 99 0
-3 -100 0
3 -94 100 0
2 -100 0
95 99 -108 0
-6 9 -99 -106 108 0
9 -95 -106 108 0
-6 7 -99 101 0
-7 -101 0
7 -95 101 0
6 -101 0
-10 11 -99 102 0
13 -102 109 0
-8 -12 -16 -20 94 95 96 97 98 99 0
-11 -102 0
8 -10 13 -106 109 0
10 -102 0
-14 15 -99 103 0
17 -103 110 0
-8 -12 18 -20 94 95 96 97 98 99 0
-15 -103 0
12 -14 17 -106 110 0
14 -103 0
-18 19 -99 104 0
21 -104 111 0
-8 14 -16 -20 94 95 96 97 98 99 0
-19 -104 0
16 -18 21 -106 111 0
18 -104 0
10 -12 18 22 94 95 96 97 98 99 0
-22 23 -99 105 0
25 -105 112 0
-20 99 -112 0
-23 -105 0
20 -22 25 -106 112 0
22 -105 0
-31 -35 96 99 100 101 102 103 104 105 106 0
-26 27 -99 -106 0
-31 96 98 99 100 101 102 103 104 105 106 0
27 -96 -106 0
-26 29 -99 -106 113 0
30 -35 96 99 100 101 102 103 104 105 106 0
26 -31 34 100 101 102 103 104 105 106 0
96 99 -113 0
-27 -31 98 99 100 101 102 103 104 105 106 0
-35 96 97 99 100 101 102 103 104 105 106 0
27 29 -96 113 0
26 -35 97 99 100 101 102 103 104 105 106 0
-36 97 99 107 108 109 110 111 112 113 114 0
-30 31 -99 -106 0
-27 30 34 100 101 102 103 104 105 106 0
34 97 99 107 108 109 110 111 112 113 114 0
31 -97 -106 0
-27 -31 -35 100 101 102 103 104 105 106 0
-30 33 -99 -106 -114 0
26 30 -35 100 101 102 103 104 105 106 0
-35 97 99 106 107 108 109 110 111 112 113 114 0
-26 27 29 -99 113 0
97 98 99 107 108 109 110 111 112 113 114 0
29 -96 -106 113 0
31 33 -97 -114 0
-31 98 99 106 107 108 109 110 111 112 113 114 0
-33 98 99 107 108 109 110 111 112 113 114 0
-34 35 -99 -106 0
30 98 99 107 108 109 110 111 112 113 114 0
35 -98 -106 0
-34 36 -99 -106 -114 0
26 30 34 100 101 102 103 104 105 106 0
33 -97 -106 -114 0
-31 -35 106 107 108 109 110 111 112 113 114 0
36 -98 -106 -114 0
35 36 -98 -114 0
-100 -106 0
-101 -106 0
-102 -106 0
-103 -106 0
-104 -106 0
-105 -106 0
26 -31 -35 100 101 102 103 104 105 106 0
-33 -35 106 107 108 109 110 111 112 113 114 0
94 99 -100 0
5 -94 -100 107 0
-5 -107 0
2 -107 0
100 106 -107 0
5 -99 -100 107 0
95 99 -101 0
9 -95 -101 108 0
-9 -108 0
6 -108 0
101 106 -108 0
9 -99 -101 108 0
-8 -12 -16 22 94 95 96 97 98 99 0
-8 99 -109 0
-13 -109 0
10 -109 0
102 106 -109 0
-8 99 -102 0
-8 -12 18 22 94 95 96 97 98 99 0
-12 99 -110 0
-17 -110 0
14 -110 0
103 106 -110 0
-12 99 -103 0
-8 14 -16 22 94 95 96 97 98 99 0
-16 99 -111 0
-21 -111 0
18 -111 0
104 106 -111 0
-16 99 -104 0
-8 14 18 22 94 95 96 97 98 99 0
-8 14 18 -20 94 95 96 97 98 99 0
-25 -112 0
22 -112 0
105 106 -112 0
-20 99 -105 0
96 97 98 99 100 101 102 103 104 105 106 0
30 96 98 99 100 101 102 103 104 105 106 0
-29 -113 0
26 -113 0
34 96 97 99 100 101 102 103 104 105 106 0
-27 -31 34 100 101 102 103 104 105 106 0
26 -31 98 99 100 101 102 103 104 105 106 0
-27 106 -113 0
-30 31 33 -99 -114 0
-27 -35 97 99 100 101 102 103 104 105 106 0
-33 34 107 108 109 110 111 112 113 114 0
30 -36 107 108 109 110 111 112 113 114 0
-33 -36 107 108 109 110 111 112 113 114 0
30 34 107 108 109 110 111 112 113 114 0
-27 97 98 99 100 101 102 103 104 105 106 0
30 -35 106 107 108 109 110 111 112 113 114 0
-34 35 36 -99 -114 0
-27 30 -35 100 101 102 103 104 105 106 0
26 97 98 99 100 101 102 103 104 105 106 0
-31 34 106 107 108 109 110 111 112 113 114 0
-107 -114 0
-108 -114 0
-109 -114 0
-110 -114 0
-111 -114 0
-112 -114 0
-113 -114 0
-31 -36 106 107 108 109 110 111 112 113 114 0
1 -2 3 -114 115 0
-1 99 -115 0
-2 5 -99 -106 115 0
1 -2 -106 -114 115 0
-3 106 -115 0
-2 -99 -106 -114 115 0
-2 3 -99 -114 115 0
-5 114 -115 0
2 -115 0
1 -2 3 5 115 0
1 -2 5 -106 115 0
-2 3 5 -99 115 0
4 -6 7 -114 116 0
-4 99 -116 0
-6 9 -99 -106 116 0
4 -6 -106 -114 116 0
-7 106 -116 0
-6 -99 -106 -114 116 0
-6 7 -99 -114 116 0
-9 114 -116 0
4 -6 7 9 116 0
4 -6 9 -106 116 0
-6 7 9 -99 116 0
6 -116 0
8 -10 11 -114 117 0
-8 99 -117 0
-10 13 -99 -106 117 0
8 -10 -106 -114 117 0
-11 106 -117 0
-10 -99 -106 -114 117 0
-10 11 -99 -114 117 0
-13 114 -117 0
8 -10 11 13 117 0
8 -10 13 -106 117 0
-10 11 13 -99 117 0
10 -117 0
12 -14 15 -114 118 0
-12 99 -118 0
-14 17 -99 -106 118 0
12 -14 -106 -114 118 0
-15 106 -118 0
-14 -99 -106 -114 118 0
-14 15 -99 -114 118 0
-17 114 -118 0
12 -14 15 17 118 0
12 -14 17 -106 118 0
-14 15 17 -99 118 0
14 -118 0
16 -18 19 -114 119 0
-16 99 -119 0
-18 21 -99 -106 119 0
16 -18 -106 -114 119 0
-19 106 -119 0
-18 -99 -106 -114 119 0
-18 19 -99 -114 119 0
-21 114 -119 0
16 -18 19 21 119 0
16 -18 21 -106 119 0
-18 19 21 -99 119 0
18 -119 0
20 -22 23 -114 120 0
-20 99 -120 0
-22 25 -99 -106 120 0
20 -22 -106 -114 120 0
-23 106 -120 0
-22 -99 -106 -114 120 0
-22 23 -99 -114 120 0
-25 114 -120 0
20 -22 23 25 120 0
20 -22 25 -106 120 0
-22 23 25 -99 120 0
22 -120 0
24 -26 27 -114 121 0
-24 99 -121 0
-26 29 -99 -106 121 0
24 -26 -106 -114 121 0
-27 106 -121 0
-26 -99 -106 -114 121 0
-26 27 -99 -114 121 0
-29 114 -121 0
24 -26 27 29 121 0
24 -26 29 -106 121 0
-26 27 29 -99 121 0
26 -121 0
28 -30 31 -114 122 0
-28 99 -122 0
-30 33 -99 -106 122 0
28 -30 -106 -114 122 0
-31 106 -122 0
-30 -99 -106 -114 122 0
-30 31 -99 -114 122 0
-33 114 -122 0
28 -30 31 33 122 0
28 -30 33 -106 122 0
-30 31 33 -99 122 0
30 -122 0
32 -34 35 -114 115 123 0
-32 99 116 117 118 119 120 121 122 -123 0
-34 36 -99 -106 115 123 0
32 -34 -106 -114 115 123 0
-35 106 116 117 118 119 120 121 122 -123 0
-34 -99 -106 -114 115 123 0
-34 35 -99 -114 115 123 0
-36 114 116 117 118 119 120 121 122 -123 0
-34 35 36 -99 115 123 0
34 116 117 118 119 120 121 122 -123 0
32 -34 35 36 115 123 0
32 -34 36 -106 115 123 0
115 -116 123 0
115 -117 123 0
115 -118 123 0
115 -119 123 0
115 -120 123 0
115 -121 123 0
-115 -123 0
115 -122 123 0
116 -117 124 0
117 -118 -124 0
117 118 119 -135 -142 0
116 117 118 119 -136 -142 0
-117 135 -142 0
118 119 -120 -141 -142 0
117 119 -120 -124 0
116 117 -119 141 -142 0
116 117 118 119 -137 -142 0
-117 -141 -142 0
116 118 -119 -121 124 0
116 117 120 121 141 -142 0
-116 -141 -142 0
116 118 120 -121 124 0
116 118 120 122 124 0
117 121 -122 -124 0
116 118 -119 122 124 0
118 119 -121 -141 -142 0
-116 -124 0
-90 -92 -125 0
5 64 -89 -90 92 125 0
5 64 -89 90 -92 125 0
-64 -125 0
-5 -125 0
90 92 -125 0
89 -125 0
-87 -92 -126 0
9 65 -86 -87 92 126 0
9 65 -86 87 -92 126 0
-65 -126 0
-9 -126 0
87 92 -126 0
86 -126 0
-85 -92 -127 0
13 66 -84 -85 92 127 0
13 66 -84 85 -92 127 0
-66 -127 0
-13 -127 0
85 92 -127 0
84 -127 0
-83 -92 -128 0
17 67 -82 -83 92 128 0
17 67 -82 83 -92 128 0
-67 -128 0
-17 -128 0
83 92 -128 0
82 -128 0
-81 -92 -129 0
21 68 -80 -81 92 129 0
21 68 -80 81 -92 129 0
-68 -129 0
-21 -129 0
81 92 -129 0
80 -129 0
-79 -92 -130 0
25 69 -78 -79 92 130 0
25 69 -78 79 -92 130 0
-69 -130 0
-25 -130 0
79 92 -130 0
78 -130 0
-77 -92 -131 0
29 70 -76 -77 92 131 0
29 70 -76 77 -92 131 0
-70 -131 0
-29 -131 0
77 92 -131 0
76 -131 0
73 75 92 125 126 127 128 129 130 131 132 0
33 71 -74 -75 92 -132 0
-72 75 92 125 126 127 128 129 130 131 132 0
33 71 -74 75 -92 -132 0
-36 75 92 125 126 127 128 129 130 131 132 0
-75 -92 93 125 126 127 128 129 130 131 132 0
-33 73 125 126 127 128 129 130 131 132 0
-36 -71 125 126 127 128 129 130 131 132 0
73 74 125 126 127 128 129 130 131 132 0
-33 93 125 126 127 128 129 130 131 132 0
-71 93 125 126 127 128 129 130 131 132 0
-36 -75 -92 125 126 127 128 129 130 131 132 0
74 93 125 126 127 128 129 130 131 132 0
-33 -36 125 126 127 128 129 130 131 132 0
-72 74 125 126 127 128 129 130 131 132 0
36 72 -73 -93 -132 0
-71 73 125 126 127 128 129 130 131 132 0
-33 -72 125 126 127 128 129 130 131 132 0
-36 74 125 126 127 128 129 130 131 132 0
-71 -72 125 126 127 128 129 130 131 132 0
75 92 93 125 126 127 128 129 130 131 132 0
-125 -132 0
-126 -132 0
-127 -132 0
-128 -132 0
-129 -132 0
-130 -132 0
-131 -132 0
73 -75 -92 125 126 127 128 129 130 131 132 0
-72 -75 -92 125 126 127 128 129 130 131 132 0
-34 -88 -91 123 -132 133 -142 0
1 -2 3 -132 133 0
-1 88 -133 0
-2 5 -88 -91 133 0
1 -2 -91 -132 133 0
-3 91 -133 0
-2 -88 -91 -132 133 0
-34 36 -88 -91 123 133 -142 0
-2 3 -88 -132 133 0
-5 132 -133 0
2 -133 0
1 -2 3 5 133 0
1 -2 5 -91 133 0
-2 3 5 -88 133 0
4 -6 -9 -91 132 134 0
-4 88 -134 0
-6 -9 -88 -91 132 134 0
-7 91 -134 0
-132 -134 0
4 -6 7 -9 132 134 0
-6 7 -9 -88 132 134 0
6 -134 0
9 -134 0
8 -10 11 -132 135 0
-8 88 -135 0
-10 13 -88 -91 135 0
8 -10 -91 -132 135 0
-11 91 -135 0
-10 -88 -91 -132 135 0
-10 11 -88 -132 135 0
-13 132 -135 0
8 -10 11 13 135 0
8 -10 13 -91 135 0
-10 11 13 -88 135 0
10 -135 0
12 -14 15 -132 136 0
-12 88 -136 0
-14 17 -88 -91 136 0
12 -14 -91 -132 136 0
-15 91 -136 0
-14 -88 -91 -132 136 0
-14 15 -88 -132 136 0
-17 132 -136 0
12 -14 15 17 136 0
12 -14 17 -91 136 0
-14 15 17 -88 136 0
14 -136 0
16 -18 19 -132 137 0
-16 88 -137 0
-18 21 -88 -91 137 0
16 -18 -91 -132 137 0
-19 91 -137 0
-18 -88 -91 -132 137 0
-18 19 -88 -132 137 0
-21 132 -137 0
16 -18 19 21 137 0
16 -18 21 -91 137 0
-18 19 21 -88 137 0
18 -137 0
20 -22 23 -132 138 0
-20 88 -138 0
-22 25 -88 -91 138 0
20 -22 -91 -132 138 0
-23 91 -138 0
-22 -88 -91 -132 138 0
-22 23 -88 -132 138 0
-25 132 -138 0
20 -22 23 25 138 0
20 -22 25 -91 138 0
-22 23 25 -88 138 0
22 -138 0
24 -26 27 -132 139 0
-24 88 -139 0
-26 29 -88 -91 139 0
24 -26 -91 -132 139 0
-27 91 -139 0
-26 -88 -91 -132 139 0
-26 27 -88 -132 139 0
-29 132 -139 0
24 -26 27 29 139 0
24 -26 29 -91 139 0
-26 27 29 -88 139 0
26 -139 0
28 -30 31 -132 140 0
-28 88 -140 0
-30 33 -88 -91 140 0
28 -30 -91 -132 140 0
-31 91 -140 0
-30 -88 -91 -132 140 0
-30 31 -88 -132 140 0
-33 132 -140 0
28 -30 31 33 140 0
28 -30 33 -91 140 0
-30 31 33 -88 140 0
30 -140 0
-32 88 -123 135 136 137 138 139 140 -142 0
-34 35 -88 123 -132 133 -142 0
-35 91 -123 135 136 137 138 139 140 -142 0
-34 35 36 -88 123 133 -142 0
-36 -123 132 135 136 137 138 139 140 -142 0
32 -34 35 36 123 133 -142 0
32 -34 -91 123 -132 133 -142 0
34 -123 135 136 137 138 139 140 -142 0
32 -34 35 123 -132 133 -142 0
-134 -142 0
123 133 -135 -142 0
123 133 -136 -142 0
123 133 -139 -142 0
123 133 -138 -142 0
124 -135 -142 0
-118 135 136 137 -142 0
124 136 138 -139 -142 0
136 137 -138 -141 0
-124 135 137 -138 -142 0
124 136 138 140 -142 0
136 137 -139 -141 0
134 135 -136 141 0
-134 -141 0
-135 -141 0
124 136 -137 -139 -142 0
134 135 -137 141 0
117 -118 141 -142 0
-124 135 139 -140 -142 0
-124 135 -136 -142 0
32 -34 36 -91 123 133 -142 0
-88 99 -142 0
88 -99 -142 0
-91 106 -142 0
91 -106 -142 0
114 -132 -142 0
-114 132 -142 0
-123 -133 -142 0
123 133 -137 -142 0
123 133 -140 -142 0
-116 135 -142 0
124 136 -137 140 -142 0
134 135 138 139 141 0
-2 -37 -143 0
2 37 -143 0
-6 -38 -144 0
6 38 -144 0
-10 -39 -145 0
10 39 -145 0
-14 -40 -146 0
14 40 -146 0
-18 -41 -147 0
18 41 -147 0
-22 -42 -148 0
22 42 -148 0
-26 -43 -149 0
26 43 -149 0
-30 -44 -150 0
30 44 -150 0
-34 -45 -151 0
34 45 -151 0
-1 -46 -152 0
1 46 -152 0
-4 -47 -153 0
4 47 -153 0
-8 -48 -154 0
8 48 -154 0
-12 -49 -155 0
12 49 -155 0
-16 -50 -156 0
16 50 -156 0
-20 -51 -157 0
20 51 -157 0
-24 -52 -158 0
24 52 -158 0
-28 -53 -159 0
28 53 -159 0
-32 -54 -160 0
32 54 -160 0
-31 -55 -161 0
31 55 -161 0
-27 -56 -162 0
27 56 -162 0
-23 -57 -163 0
23 57 -163 0
-19 -58 -164 0
19 58 -164 0
-15 -59 -165 0
15 59 -165 0
-11 -60 -166 0
11 60 -166 0
-7 -61 -167 0
7 61 -167 0
-3 35 -62 63 142 143 144 145 146 147 148 149 150 151 152 153 154 155 156 157 158 159 160 161 162 163 164 165 166 167 0
3 -35 62 -63 142 143 144 145 146 147 148 149 150 151 152 153 154 155 156 157 158 159 160 161 162 163 164 165 166 167 0
-3 -35 -62 -63 142 143 144 145 146 147 148 149 150 151 152 153 154 155 156 157 158 159 160 161 162 163 164 165 166 167 0
-119 135 136 137 -142 0
3 35 62 63 142 143 144 145 146 147 148 149 150 151 152 153 154 155 156 157 158 159 160 161 162 163 164 165 166 167 0
